244 300 242 218 234 248 212 243 239 244 201 211 247 201 244 209 202 216 250 228 208 247 204 216 203 241 208 247 216 245 224 250 221 240 217 230 211 203 247 250 247 248 210 217 249 229 226 225 245 225 203 228 246 232 244 224 248 226 220 238 220 218 237 216 232 203 220 243 206 241 216 227 238 226 244 211 229 244 210 224 243 238 201 239 220 219 212 242 245 232 229 239 224 215 229 205 218 249 248 249 239 213 225 201 213 243 212 243 236 247 241 228 235 216 216 229 235 228 220 203 234 249 242 207 238 221 237 230 219 234 228 233 221 202 234 209 219 220 226 204 241 216 232 225 206 223 228 215 225 248 218 209 220 209 241 207 204 202 237 249 236 239 231 232 215 239 241 234 233 216 238 223 206 245 223 237 242 200 201 216 249 219 225 243 202 241 225 207 243 211 205 202 225 210 234 240 249 249 224 231 239 236 228 219 204 200 205 246 201 206 212 224 250 211 241 202 201 215 209 218 201 239 221 226 249 229 215 247 228 213 201 241 224 229 210 228 204 215 249 230 222 235 228 221 246 218 